memory 12 gb
molecule mol {
noreorient
nocom
    0 1
C          1.06160       -0.26810       -0.00060
C          1.91010        0.91260       -0.42200
O          1.51700        1.32360       -1.72280
H          0.00220        0.00170        0.02400
H          1.19690       -1.10690       -0.69130
H          1.35910       -0.62220        0.99210
H          2.96840        0.63610       -0.44460
H          1.77300        1.74990        0.26870
H          2.07870        2.07940       -1.96120

}
set basis 6-31G*
optimize('HF')
set basis cc-pV(D+d)Z
optimize('HF')
set basis cc-pV(D+d)Z
optimize('PW6B95')

mol.save_xyz_file('ethanol-liquid/ETH-confermers_opt_2.xyz',True)