memory 12 gb
molecule meoh {
noreorient
nocom
0 1
C     1.0710    -0.2620    -0.0070
C     1.9170     0.9160    -0.4230
O     1.5020     1.3070    -1.7150
H     0.0100     0.0150     0.0010
H     1.2000    -1.0900    -0.7140
H     1.3500    -0.6100     0.9940
H     2.9840     0.6330    -0.4120
H     1.7940     1.7400     0.3030
H     2.0390     2.0580    -1.9840
}
set {
basis aug-cc-pV(D+d)Z
}
E,wfn = prop('PW6B95' , properties = ['GRID_ESP', 'GRID_FIELD'], return_wfn=True)
