memory 12 gb
molecule meoh {
noreorient
nocom
0 1
C     1.0590    -0.2840     0.0080
C     1.9150     0.8810    -0.4460
O     1.5380     1.3760    -1.7120
H    -0.0010    -0.0050     0.0030
H     1.1860    -1.1470    -0.6600
H     1.3320    -0.6070     1.0200
H     2.9820     0.5980    -0.4250
H     1.7990     1.7260     0.2450
H     1.6370     0.6540    -2.3420
}
set {
basis 6-31G*
}
E,wfn = prop('HF' , properties = ['GRID_ESP', 'GRID_FIELD'], return_wfn=True)
